22 1 17 1 19 3 17 3 14 1 10 1 12 5
22 1 17 1 19 3 17 3 14 1 17 1 12 5
0 1 0 1 2 1 5 1 7 1 10 1 12 1 17 1 14 1 10 1 12 5
0 1 0 1 2 1 5 1 7 1 10 1 12 1 17 1 14 1 10 1 12 5
17 3 19 1 22 1 17 3 19 1 22 1 17 3 14 1 10 1 12 6
22 1 17 1 19 3 17 3 14 1 10 1 12 5
22 1 17 1 19 3 17 3 14 1 17 1 12 5
0 1 0 1 2 1 5 1 7 1 10 1 12 1 17 1 14 1 10 1 12 5
0 1 0 1 2 1 5 1 7 1 10 1 12 1 17 1 14 1 10 1 12 5
17 3 19 1 22 1 17 3 19 1 22 1 17 3 14 1 10 1 12 6